
Gurobi 11.0.3 (linux64) logging started Sat Nov 23 16:24:49 2024

Set parameter LogFile to value "/home/yihong/Coding/OR_SUC/SUC_results_bigM100000_thread4/case24_ieee_rts_theta0.5_epsilon0.025_gurobi_seed720000_num_gen100_N_WDR50_load_scaling_factor1_exact_T24quadra_cost.txt"
Set parameter TimeLimit to value 3600
Gurobi Optimizer version 11.0.3 build v11.0.3rc0 (linux64 - "Ubuntu 20.04.6 LTS")

CPU model: AMD EPYC 7532 32-Core Processor, instruction set [SSE2|AVX|AVX2]
Thread count: 64 physical cores, 128 logical processors, using up to 4 threads

Optimize a model with 50071 rows, 29861 columns and 508398 nonzeros
Model fingerprint: 0xc58fab9f
Model has 2400 quadratic constraints
Variable types: 27411 continuous, 2450 integer (2450 binary)
Coefficient statistics:
  Matrix range     [3e-04, 1e+05]
  QMatrix range    [2e-03, 8e-03]
  QLMatrix range   [5e-01, 6e+01]
  Objective range  [1e+00, 1e+00]
  Bounds range     [1e+00, 1e+00]
  RHS range        [1e+00, 1e+05]
Presolve removed 40365 rows and 12959 columns
Presolve time: 0.23s
Presolved: 9706 rows, 16902 columns, 51611 nonzeros
Presolved model has 2400 quadratic constraint(s)
Variable types: 14477 continuous, 2425 integer (2425 binary)

Root relaxation: objective 7.019295e+04, 8548 iterations, 0.16 seconds (0.23 work units)

    Nodes    |    Current Node    |     Objective Bounds      |     Work
 Expl Unexpl |  Obj  Depth IntInf | Incumbent    BestBd   Gap | It/Node Time

     0     0 70192.9460    0    2          - 70192.9460      -     -    0s
     0     0 362251.961    0  694          - 362251.961      -     -    0s
     0     0 408191.962    0  647          - 408191.962      -     -    0s
     0     0 658851.634    0  631          - 658851.634      -     -    1s
     0     0 658888.944    0  515          - 658888.944      -     -    1s
     0     0 659399.578    0  448          - 659399.578      -     -    1s
     0     0 659402.448    0  448          - 659402.448      -     -    1s
     0     0 659515.441    0  446          - 659515.441      -     -    1s
     0     0 659547.364    0  446          - 659547.364      -     -    1s
     0     2 659547.364    0  446          - 659547.364      -     -    2s
H  911   305                    659985.59898 659608.148  0.06%  18.7    4s
*  911   305             245    659985.59898 659608.148  0.06%  18.7    4s

Cutting planes:
  Gomory: 7
  Implied bound: 423
  MIR: 77
  Flow cover: 91
  Relax-and-lift: 4
  PSD: 1

Explored 1007 nodes (40453 simplex iterations) in 5.74 seconds (6.35 work units)
Thread count was 4 (of 128 available processors)

Solution count 2: 659986 659986 

Optimal solution found (tolerance 1.00e-03)
Warning: max constraint violation (1.5741e-08) exceeds tolerance
Best objective 6.599855983975e+05, best bound 6.596395049749e+05, gap 0.0524%
